Solver command line: ['/opt/sw/arch/easybuild/2018b/software/CPLEX/12.9-GCCcore-8.2.0/cplex/bin/x86-64_linux/cplex']


Welcome to IBM(R) ILOG(R) CPLEX(R) Interactive Optimizer 12.9.0.0
  with Simplex, Mixed Integer & Barrier Optimizers
5725-A06 5725-A29 5724-Y48 5724-Y49 5724-Y54 5724-Y55 5655-Y21
Copyright IBM Corp. 1988, 2019.  All Rights Reserved.

Type 'help' for a list of available commands.
Type 'help' followed by a command name for more
information on commands.

CPLEX> Logfile 'cplex.log' closed.
Logfile 'obj_3_4.log' open.
CPLEX> New value for default parallel thread count: 16
CPLEX> Problem '/localscratch/arosati/70372665/tmpwq5zoob5.pyomo.lp' read.
Read time = 0.01 sec. (0.57 ticks)
CPLEX> MIP start file '/localscratch/arosati/70372665/tmpd0zapm18.cplex.mst' read.
CPLEX> Problem name         : /localscratch/arosati/70372665/tmpwq5zoob5.pyomo.lp
Objective sense      : Minimize
Variables            :    5302  [Nneg: 1,  General Integer: 5301]
Objective nonzeros   :     325
Linear constraints   :    1267  [Less: 1107,  Equal: 160]
  Nonzeros           :   29977
  RHS nonzeros       :     640

Variables            : Min LB: 0.000000         Max UB: 1.000000       
Objective nonzeros   : Min   : 1.000000         Max   : 27.00000       
Linear constraints   :
  Nonzeros           : Min   : 1.000000         Max   : 180.0000       
  RHS nonzeros       : Min   : 1.000000         Max   : 12.00000       
CPLEX> CPXPARAM_Threads                                 16
1 of 1 MIP starts provided solutions.
MIP start 'm1' defined initial solution with objective 61.0000.
Tried aggregator 1 time.
MIP Presolve eliminated 421 rows and 230 columns.
MIP Presolve modified 4395 coefficients.
Reduced MIP has 839 rows, 5072 columns, and 18257 nonzeros.
Reduced MIP has 5072 binaries, 0 generals, 0 SOSs, and 0 indicators.
Presolve time = 0.02 sec. (20.90 ticks)
Probing time = 0.01 sec. (3.70 ticks)
Tried aggregator 1 time.
Reduced MIP has 839 rows, 5072 columns, and 18257 nonzeros.
Reduced MIP has 5072 binaries, 0 generals, 0 SOSs, and 0 indicators.
Presolve time = 0.03 sec. (30.39 ticks)
Probing time = 0.01 sec. (3.63 ticks)
Clique table members: 9493.
MIP emphasis: balance optimality and feasibility.
MIP search method: dynamic search.
Parallel mode: deterministic, using up to 16 threads.
Root relaxation solution time = 0.04 sec. (27.98 ticks)

        Nodes                                         Cuts/
   Node  Left     Objective  IInf  Best Integer    Best Bound    ItCnt     Gap

*     0+    0                           61.0000      -27.0000           144.26%
      0     0        0.0000    63       61.0000        0.0000     1334  100.00%
*     0+    0                           44.0000        0.0000           100.00%
*     0+    0                            0.0000        0.0000             0.00%
      0     0        cutoff              0.0000        0.0000     1334    0.00%
Elapsed time = 0.25 sec. (168.18 ticks, tree = 0.01 MB, solutions = 3)

Root node processing (before b&c):
  Real time             =    0.25 sec. (168.51 ticks)
Parallel b&c, 16 threads:
  Real time             =    0.00 sec. (0.00 ticks)
  Sync time (average)   =    0.00 sec.
  Wait time (average)   =    0.00 sec.
                          ------------
Total (root+branch&cut) =    0.25 sec. (168.51 ticks)

Solution pool: 3 solutions saved.

MIP - Integer optimal solution:  Objective =  0.0000000000e+00
Solution time =    0.26 sec.  Iterations = 1334  Nodes = 0
Deterministic time = 168.52 ticks  (657.66 ticks/sec)

CPLEX> Incumbent solution written to file '/localscratch/arosati/70372665/tmp2q7p7xe4.cplex.sol'.
CPLEX> 
